Al8 Co1 Ni3 Ru4
1.0
   5.8283630000000004   -0.0000950000000000   -0.0001300000000000
  -0.0000930000000000    5.8269120000000001   -0.0001100000000000
  -0.0001400000000000   -0.0001210000000000    6.0480660000000004
Al Co Ni Ru
8 1 3 4
direct
   0.0032420000000000    0.5032410000000000    0.2521270000000000 Al
   0.0032430000000000    0.9967510000000001    0.2521130000000000 Al
   0.4967240000000000    0.5032280000000000    0.2538460000000000 Al
   0.4967260000000000    0.9967740000000000    0.2538580000000000 Al
   0.4967490000000000    0.5032140000000001    0.7461580000000000 Al
   0.4967310000000000    0.9967720000000000    0.7461440000000000 Al
   0.0032570000000000    0.5032470000000000    0.7478669999999999 Al
   0.0032380000000000    0.9967670000000000    0.7478900000000001 Al
   0.2496550000000000    0.7499960000000000    0.5000070000000000 Co
   0.7495600000000000    0.2499970000000000    0.0000020000000000 Ni
   0.2504490000000000    0.7499990000000000    0.0000000000000000 Ni
   0.7504780000000000    0.2500000000000000    0.4999920000000000 Ni
   0.2507790000000000    0.2500010000000000    0.0000020000000000 Ru
   0.7493270000000000    0.7499970000000000    0.0000000000000000 Ru
   0.2492300000000000    0.2500050000000000    0.5000000000000000 Ru
   0.7506100000000000    0.7500100000000000    0.5000019999999999 Ru
