Al8 Co1 Ni3 Ru4                         
   1.00000000000000     
     5.8121112463503408   -0.0002451760431382   -0.0001601521974942
    -0.0004325747163005    5.8110876718933087   -0.0001236282518259
     0.0001077962656109    0.0001060753205441    6.0279963470120723
   Al   Co   Ni   Ru
     8     1     3     4
Direct
  0.0032436488704824  0.5032498483302880  0.2521506125447752
  0.0032486970050604  0.9967427098905227  0.2521456027311585
  0.4967237748805063  0.5032420565211678  0.2537724726738414
  0.4967222636731387  0.9967598572078149  0.2537772933511365
  0.4967437391645941  0.5032270364809871  0.7462309652244355
  0.4967298474251116  0.9967621613062589  0.7462264299431159
  0.0032606818811694  0.5032590795077447  0.7478428998749945
  0.0032423782712212  0.9967545146046068  0.7478577595657766
  0.2496594878338249  0.7499992575373111  0.5000068723619219
  0.7495824278475374  0.2499964877952060  0.0000020451572543
  0.2504370454192418  0.7499993440293115 -0.0000005063276292
  0.7504566529724990  0.2500003947029161  0.4999923880669152
  0.2507373077439503  0.2500007662575867  0.0000015353012802
  0.7493552998964967  0.7499964315049785  0.0000002773968900
  0.2492653195515765  0.2500020606867920  0.5000002583148173
  0.7505894275635945  0.7500069936365240  0.5000010938193243
 
  0.00000000E+00  0.00000000E+00  0.00000000E+00
  0.00000000E+00  0.00000000E+00  0.00000000E+00
  0.00000000E+00  0.00000000E+00  0.00000000E+00
  0.00000000E+00  0.00000000E+00  0.00000000E+00
  0.00000000E+00  0.00000000E+00  0.00000000E+00
  0.00000000E+00  0.00000000E+00  0.00000000E+00
  0.00000000E+00  0.00000000E+00  0.00000000E+00
  0.00000000E+00  0.00000000E+00  0.00000000E+00
  0.00000000E+00  0.00000000E+00  0.00000000E+00
  0.00000000E+00  0.00000000E+00  0.00000000E+00
  0.00000000E+00  0.00000000E+00  0.00000000E+00
  0.00000000E+00  0.00000000E+00  0.00000000E+00
  0.00000000E+00  0.00000000E+00  0.00000000E+00
  0.00000000E+00  0.00000000E+00  0.00000000E+00
  0.00000000E+00  0.00000000E+00  0.00000000E+00
  0.00000000E+00  0.00000000E+00  0.00000000E+00
