ALGO = Normal
EDIFF = 1E-8
EDIFFG = 0.001
ENCUT = 520
IBRION = 2
ISIF = 3
ISMEAR = -5
ISPIN = 2
LASPH = True
LMAXMIX = 4
LORBIT = 11
LREAL = F
LWAVE = False
MAGMOM = 9*0.6 3*5.0 4*0.6
NELM = 100
NSW = 99
PREC = Accurate
SIGMA = 0.05
