pymatgen with grid density = 1237 / number of atoms
0
Monkhorst
4 4 4
